
// Função Objetivo

min: m;

// Constantes

xC1 =  2;
yC1 =  8;

xC2 = 10;
yC2 =  7;

xC3 =  1;
yC3 =  3;

xC4 =  6;
yC4 =  4;

xC5 =  7;
yC5 =  7;

// Restrições

 xC1 - xD1 + yC1 - yD1 <= m;
-xC1 + xD1 + yC1 - yD1 <= m;
 xC1 - xD1 - yC1 + yD1 <= m;
-xC1 + xD1 - yC1 + yD1 <= m;

 xC2 - xD1 + yC2 - yD1 <= m;
-xC2 + xD1 + yC2 - yD1 <= m;
 xC2 - xD1 - yC2 + yD1 <= m;
-xC2 + xD1 - yC2 + yD1 <= m;

 xC3 - xD1 + yC3 - yD1 <= m;
-xC3 + xD1 + yC3 - yD1 <= m;
 xC3 - xD1 - yC3 + yD1 <= m;
-xC3 + xD1 - yC3 + yD1 <= m;

 xC4 - xD1 + yC4 - yD1 <= m;
-xC4 + xD1 + yC4 - yD1 <= m;
 xC4 - xD1 - yC4 + yD1 <= m;
-xC4 + xD1 - yC4 + yD1 <= m;

 xC5 - xD1 + yC5 - yD1 <= m;
-xC5 + xD1 + yC5 - yD1 <= m;
 xC5 - xD1 - yC5 + yD1 <= m;
-xC5 + xD1 - yC5 + yD1 <= m;
